102 145 73 49 113 11 47 94 64 10 128 87 92 51 179 82 171 5 67 173 141 116 55 186 22 48 80 75 86 19 140 26 122 118 95 106 150 99 36 127 139 129 62 155 110 57 154 69 97 160 101 147 162 104 153 78 165 132 54 61 156 185 84 195 43 76 135 20 170 172 109 88 166 23 151 30 111 136 38 70 126 180 114 18 46 188 33 41 34 191 189 6 39 120 138 196 77 112 123 28 167 8 124 85 2 17 56 146 187 103 181 144 50 52 1 58 174 90 121 32 15 142 143 163 115 117 12 133 72 29 3 100 194 27 68 182 164 108 197 98 199 21 31 60 152 89 125 183 137 83 40 71 134 175 107 184 192 79 9 42 131 148 178 158 74 14 81 63 66 119 198 7 168 169 105 37 13 190 35 24 177 25 157 91 4 53 96 149 176 65 159 44 59 130 0 45 93 16 161 193